! EMerge PIFA Verification - AU915 (915-928 MHz)
! patch_length=34.42mm, patch_width=26.00mm, short_span=12.00mm, feed_offset=7.00mm
# MHZ S RI R 50.0
700.000000 -0.97001552 0.22065626
705.000000 -0.96910421 0.22371168
710.000000 -0.96814835 0.22685488
715.000000 -0.96714427 0.23009176
720.000000 -0.96608787 0.23342874
725.000000 -0.96497459 0.23687285
730.000000 -0.96379932 0.24043175
735.000000 -0.96255634 0.24411386
740.000000 -0.96123919 0.24792842
745.000000 -0.95984062 0.25188559
750.000000 -0.95835240 0.25599659
755.000000 -0.95676520 0.26027379
760.000000 -0.95506836 0.26473090
765.000000 -0.95324972 0.26938315
770.000000 -0.95129531 0.27424747
775.000000 -0.94918900 0.27934274
780.000000 -0.94691215 0.28469005
785.000000 -0.94444305 0.29031307
790.000000 -0.94175633 0.29623834
795.000000 -0.93882215 0.30249578
800.000000 -0.93560530 0.30911916
805.000000 -0.93206390 0.31614667
810.000000 -0.92814785 0.32362161
815.000000 -0.92379685 0.33159318
820.000000 -0.91893779 0.34011731
825.000000 -0.91348132 0.34925763
830.000000 -0.90731741 0.35908654
835.000000 -0.90030933 0.36968616
840.000000 -0.89228569 0.38114923
845.000000 -0.88302944 0.39357951
850.000000 -0.87226295 0.40709120
855.000000 -0.85962718 0.42180642
860.000000 -0.84465262 0.43784871
865.000000 -0.82671835 0.45532923
870.000000 -0.80499424 0.47431896
875.000000 -0.77835979 0.49479442
880.000000 -0.74529286 0.51653329
885.000000 -0.70372547 0.53891492
890.000000 -0.65088471 0.56054217
895.000000 -0.58320409 0.57853799
900.000000 -0.49658470 0.58730084
905.000000 -0.38776033 0.57657515
910.000000 -0.25837316 0.52950139
915.000000 -0.12353724 0.42425201
920.000000 -0.02105287 0.24760063
925.000000 -0.00162583 0.02174718
930.000000 -0.08591971 -0.19005419
935.000000 -0.23800223 -0.33101505
940.000000 -0.40167499 -0.39223175
945.000000 -0.54262377 -0.39738867
950.000000 -0.65197181 -0.37286513
955.000000 -0.73319032 -0.33611658
960.000000 -0.79277020 -0.29639304
965.000000 -0.83659740 -0.25796452
970.000000 -0.86915017 -0.22252328
975.000000 -0.89362948 -0.19053542
980.000000 -0.91227714 -0.16192442
985.000000 -0.92666048 -0.13639956
990.000000 -0.93788304 -0.11360773
995.000000 -0.94673048 -0.09320030
1000.000000 -0.95376939 -0.07485965
1005.000000 -0.95941383 -0.05830722
1010.000000 -0.96397041 -0.04330325
1015.000000 -0.96766903 -0.02964329
1020.000000 -0.97068417 -0.01715359
1025.000000 -0.97314977 -0.00568664
1030.000000 -0.97516970 0.00488303
1035.000000 -0.97682530 0.01466235
1040.000000 -0.97818091 0.02374279
1045.000000 -0.97928779 0.03220285
1050.000000 -0.98018716 0.04011016
1055.000000 -0.98091236 0.04752322
1060.000000 -0.98149059 0.05449279
1065.000000 -0.98194416 0.06106316
1070.000000 -0.98229149 0.06727304
1075.000000 -0.98254786 0.07315641
1080.000000 -0.98272602 0.07874324
1085.000000 -0.98283668 0.08406000
1090.000000 -0.98288884 0.08913017
1095.000000 -0.98289013 0.09397465
1100.000000 -0.98284703 0.09861207
1105.000000 -0.98276506 0.10305912
1110.000000 -0.98264896 0.10733077
1115.000000 -0.98250277 0.11144049
1120.000000 -0.98233002 0.11540043
1125.000000 -0.98213371 0.11922157
1130.000000 -0.98191648 0.12291387
1135.000000 -0.98168060 0.12648637
1140.000000 -0.98142805 0.12994731
1145.000000 -0.98116058 0.13330418
1150.000000 -0.98087970 0.13656386
1155.000000 -0.98058673 0.13973263
1160.000000 -0.98028286 0.14281625
1165.000000 -0.97996910 0.14582001
1170.000000 -0.97964636 0.14874880
1175.000000 -0.97931546 0.15160710
1180.000000 -0.97897709 0.15439908
1185.000000 -0.97863189 0.15712857
1190.000000 -0.97828041 0.15979912
1195.000000 -0.97792314 0.16241404
1200.000000 -0.97756054 0.16497638
1205.000000 -0.97719297 0.16748901
1210.000000 -0.97682081 0.16995456
1215.000000 -0.97644434 0.17237553
1220.000000 -0.97606386 0.17475421
1225.000000 -0.97567960 0.17709276
1230.000000 -0.97529179 0.17939321
1235.000000 -0.97490062 0.18165744
1240.000000 -0.97450626 0.18388723
1245.000000 -0.97410887 0.18608425
1250.000000 -0.97370860 0.18825006
1255.000000 -0.97330555 0.19038614
1260.000000 -0.97289984 0.19249385
1265.000000 -0.97249157 0.19457452
1270.000000 -0.97208083 0.19662938
1275.000000 -0.97166768 0.19865958
1280.000000 -0.97125221 0.20066623
1285.000000 -0.97083446 0.20265036
1290.000000 -0.97041449 0.20461295
1295.000000 -0.96999235 0.20655495
1300.000000 -0.96956807 0.20847722
