! EMerge Printed Shorted-Patch PIFA - Optimised for AU915 (915-928 MHz)
! patch_length=34.42mm, patch_width=26.00mm, short_span=12.00mm, feed_offset=7.00mm
# MHZ S RI R 50.0
700.000000 -0.97000868 0.22067706
705.000000 -0.96909680 0.22373379
710.000000 -0.96814032 0.22687840
715.000000 -0.96713556 0.23011681
720.000000 -0.96607841 0.23345544
725.000000 -0.96496429 0.23690133
730.000000 -0.96378810 0.24046216
735.000000 -0.96254409 0.24414637
740.000000 -0.96122581 0.24796321
745.000000 -0.95982596 0.25192286
750.000000 -0.95833632 0.25603656
755.000000 -0.95674751 0.26031672
760.000000 -0.95504887 0.26477707
765.000000 -0.95322820 0.26943287
770.000000 -0.95127149 0.27430109
775.000000 -0.94916257 0.27940065
780.000000 -0.94688274 0.28475270
785.000000 -0.94441023 0.29038096
790.000000 -0.94171958 0.29631204
795.000000 -0.93878088 0.30257595
800.000000 -0.93555877 0.30920652
805.000000 -0.93201124 0.31624207
810.000000 -0.92808801 0.32372602
815.000000 -0.92372854 0.33170769
820.000000 -0.91885943 0.34024319
825.000000 -0.91339096 0.34939634
830.000000 -0.90721261 0.35923975
835.000000 -0.90018703 0.36985577
840.000000 -0.89214198 0.38133743
845.000000 -0.88285932 0.39378874
850.000000 -0.87205993 0.40732420
855.000000 -0.85938275 0.42206609
860.000000 -0.84435549 0.43813798
865.000000 -0.82635338 0.45565069
870.000000 -0.80454087 0.47467405
875.000000 -0.77778995 0.49518188
880.000000 -0.74456793 0.51694613
885.000000 -0.70279262 0.53933452
890.000000 -0.64967312 0.56092705
895.000000 -0.58162455 0.57880283
900.000000 -0.49454248 0.58728031
905.000000 -0.38520716 0.57597263
910.000000 -0.25544583 0.52785841
915.000000 -0.12080190 0.42107682
920.000000 -0.01961781 0.24286943
925.000000 -0.00251814 0.01649819
930.000000 -0.08896632 -0.19420301
935.000000 -0.24194469 -0.33324917
940.000000 -0.40538429 -0.39283487
945.000000 -0.54563400 -0.39701318
950.000000 -0.65426008 -0.37202898
955.000000 -0.73488962 -0.33512085
960.000000 -0.79402889 -0.29538719
965.000000 -0.83753644 -0.25701410
970.000000 -0.86985873 -0.22165195
975.000000 -0.89417093 -0.18974729
980.000000 -0.91269609 -0.16121518
985.000000 -0.92698849 -0.13576171
990.000000 -0.93814261 -0.11303310
995.000000 -0.94693786 -0.09268106
1000.000000 -0.95393647 -0.07438875
1005.000000 -0.95954942 -0.05787848
1010.000000 -0.96408111 -0.04291135
1015.000000 -0.96775986 -0.02928364
1020.000000 -0.97075900 -0.01682229
1025.000000 -0.97321159 -0.00538033
1030.000000 -0.97522086 0.00516720
1035.000000 -0.97686767 0.01492686
1040.000000 -0.97821597 0.02398975
1045.000000 -0.97931674 0.03243411
1050.000000 -0.98021097 0.04032730
1055.000000 -0.98093183 0.04772763
1060.000000 -0.98150637 0.05468570
1065.000000 -0.98195679 0.06124562
1070.000000 -0.98230142 0.06744599
1075.000000 -0.98255546 0.07332070
1080.000000 -0.98273162 0.07889959
1085.000000 -0.98284054 0.08420907
1090.000000 -0.98289119 0.08927254
1095.000000 -0.98289116 0.09411085
1100.000000 -0.98284690 0.09874257
1105.000000 -0.98276392 0.10318435
1110.000000 -0.98264692 0.10745110
1115.000000 -0.98249996 0.11155628
1120.000000 -0.98232651 0.11551198
1125.000000 -0.98212959 0.11932918
1130.000000 -0.98191181 0.12301779
1135.000000 -0.98167545 0.12658684
1140.000000 -0.98142247 0.13004455
1145.000000 -0.98115462 0.13339839
1150.000000 -0.98087339 0.13665523
1155.000000 -0.98058012 0.13982131
1160.000000 -0.98027597 0.14290241
1165.000000 -0.97996196 0.14590379
1170.000000 -0.97963901 0.14883034
1175.000000 -0.97930790 0.15168652
1180.000000 -0.97896935 0.15447649
1185.000000 -0.97862399 0.15720407
1190.000000 -0.97827236 0.15987282
1195.000000 -0.97791496 0.16248603
1200.000000 -0.97755223 0.16504676
1205.000000 -0.97718456 0.16755784
1210.000000 -0.97681229 0.17002193
1215.000000 -0.97643574 0.17244149
1220.000000 -0.97605517 0.17481884
1225.000000 -0.97567084 0.17715613
1230.000000 -0.97528295 0.17945536
1235.000000 -0.97489172 0.18171844
1240.000000 -0.97449730 0.18394714
1245.000000 -0.97409986 0.18614310
1250.000000 -0.97369953 0.18830790
1255.000000 -0.97329643 0.19044301
1260.000000 -0.97289068 0.19254981
1265.000000 -0.97248237 0.19462960
1270.000000 -0.97207158 0.19668361
1275.000000 -0.97165840 0.19871300
1280.000000 -0.97124289 0.20071886
1285.000000 -0.97082510 0.20270225
1290.000000 -0.97040510 0.20466413
1295.000000 -0.96998292 0.20660543
1300.000000 -0.96955861 0.20852705
